(declare-const c_0 Real)
(declare-const c_1 Real)
(declare-const c_2 Real)
(declare-const c_3 Real)
(declare-const c_4 Real)
(declare-const c_5 Real)
(declare-const c_6 Real)
(declare-const c_7 Real)
(declare-const c_8 Real)
(declare-const c_9 Real)
(declare-const c_10 Real)
(declare-const c_11 Real)
(declare-const c_12 Real)
(declare-const c_13 Real)
(declare-const c_14 Real)
(declare-const c_15 Real)
(declare-const c_16 Real)
(declare-const c_17 Real)
(declare-const s_0 Real)
(declare-const s_1 Real)
(declare-const s_2 Real)
(declare-const s_3 Real)
(declare-const s_4 Real)
(declare-const s_5 Real)
(declare-const s_6 Real)
(declare-const s_7 Real)
(declare-const s_8 Real)
(declare-const s_9 Real)
(declare-const s_10 Real)
(declare-const s_11 Real)
(declare-const s_12 Real)
(declare-const s_13 Real)
(declare-const s_14 Real)
(declare-const s_15 Real)
(declare-const s_16 Real)
(declare-const s_17 Real)
(assert (forall ((sum Real) (n Real) ) (=> (and (>= (+ (* 1024 1) (* 1 sum ) ) 0) (>= (+ (* 1023 1) (* (- 1) sum ) ) 0) (>= (+ (* 1024 1) (* 1 n ) ) 0) (>= (+ (* 1023 1) (* (- 1) n ) ) 0) ) (>= (+ (* 1 n s_1 ) (* 1 n s_2 sum ) (* 1 n n s_3 ) (* 1 s_0 ) (* 1 s_4 sum ) (* 1 s_5 sum sum ) ) 0) )))
(assert (forall ((sum Real) (n Real) ) (=> (and (>= (+ (* 1024 1) (* 1 sum ) ) 0) (>= (+ (* 1023 1) (* (- 1) sum ) ) 0) (>= (+ (* 1024 1) (* 1 n ) ) 0) (>= (+ (* 1023 1) (* (- 1) n ) ) 0) ) (>= (+ (* 1 c_0 ) (* 1 c_1 n ) (* 1 c_2 n sum ) (* 1 c_3 n n ) (* 1 c_4 sum ) (* 1 c_5 sum sum ) ) 0) )))
(assert (forall ((sum Real) (n Real) ) (=> (and (>= (+ (* 1023 1) (* (- 1) n ) ) 0) (>= (+ (* 1024 1) (* 1 n ) ) 0) (>= (+ (* 1023 1) (* (- 1) sum ) ) 0) (>= (+ (* 1024 1) (* 1 sum ) ) 0) (>= (+ (* 1 n s_1 ) (* 1 n s_2 sum ) (* 1 n n s_3 ) (* 1 s_0 ) (* 1 s_4 sum ) (* 1 s_5 sum sum ) ) 0) ) (>= (+ (* 1 n s_7 ) (* 1 n n s_9 ) (* 1 s_6 ) ) 0) )))
(assert (forall ((sum Real) (n Real) ) (=> (and (>= (+ (* 1023 1) (* (- 1) n ) ) 0) (>= (+ (* 1024 1) (* 1 n ) ) 0) (>= (+ (* 1023 1) (* (- 1) sum ) ) 0) (>= (+ (* 1024 1) (* 1 sum ) ) 0) (>= (+ (* 1 n s_1 ) (* 1 n s_2 sum ) (* 1 n n s_3 ) (* 1 s_0 ) (* 1 s_4 sum ) (* 1 s_5 sum sum ) ) 0) ) (>= (+ (* 1 c_6 ) (* 1 c_7 n ) (* 1 c_9 n n ) ) 0) )))
(assert (forall ((sum Real) (n Real) ) (=> (and (>= (+ (* 1023 1) (* (- 1) n ) ) 0) (>= (+ (* 1024 1) (* 1 n ) ) 0) (>= (+ (* 1023 1) (* (- 1) sum ) ) 0) (>= (+ (* 1024 1) (* 1 sum ) ) 0) (>= (+ (* 1 n s_1 ) (* 1 n s_2 sum ) (* 1 n n s_3 ) (* 1 s_0 ) (* 1 s_4 sum ) (* 1 s_5 sum sum ) ) 0) ) (>= (+ (* (- 1) 1) (* 1 c_0 ) (* 1 c_1 n ) (* 1 c_2 n sum ) (* 1 c_3 n n ) (* 1 c_4 sum ) (* 1 c_5 sum sum ) (* (- 1) c_6 ) (* (- 1) c_7 n ) (* (- 1) c_9 n n ) ) 0) )))
(assert (forall ((sum Real) (n Real) ) (=> (and (>= (+ (* (- 1) 1) (* (- 1) n ) ) 0) (>= (* 1 1) 0) (>= (+ (* 1 n s_7 ) (* 1 n s_8 sum ) (* 1 n n s_9 ) (* 1 s_10 sum ) (* 1 s_11 sum sum ) (* 1 s_6 ) ) 0) ) (>= (+ (* 1 n s_10 ) (* 2 n s_11 sum ) (* 1 n s_7 ) (* (- 1) n s_8 ) (* 1 n s_8 sum ) (* (- 2) n s_9 ) (* 1 n n s_11 ) (* 1 n n s_8 ) (* 1 n n s_9 ) (* 1 s_10 sum ) (* 1 s_11 sum sum ) (* 1 s_6 ) (* (- 1) s_7 ) (* (- 1) s_8 sum ) (* 1 s_9 ) ) 0) )))
(assert (forall ((sum Real) (n Real) ) (=> (and (>= (+ (* (- 1) 1) (* (- 1) n ) ) 0) (>= (* 1 1) 0) (>= (+ (* 1 n s_7 ) (* 1 n s_8 sum ) (* 1 n n s_9 ) (* 1 s_10 sum ) (* 1 s_11 sum sum ) (* 1 s_6 ) ) 0) ) (>= (+ (* 1 c_10 n ) (* 1 c_10 sum ) (* 2 c_11 n sum ) (* 1 c_11 n n ) (* 1 c_11 sum sum ) (* 1 c_6 ) (* (- 1) c_7 ) (* 1 c_7 n ) (* (- 1) c_8 n ) (* 1 c_8 n sum ) (* 1 c_8 n n ) (* (- 1) c_8 sum ) (* 1 c_9 ) (* (- 2) c_9 n ) (* 1 c_9 n n ) ) 0) )))
(assert (forall ((sum Real) (n Real) ) (=> (and (>= (+ (* (- 1) 1) (* (- 1) n ) ) 0) (>= (* 1 1) 0) (>= (+ (* 1 n s_7 ) (* 1 n s_8 sum ) (* 1 n n s_9 ) (* 1 s_10 sum ) (* 1 s_11 sum sum ) (* 1 s_6 ) ) 0) ) (>= (+ (* (- 1) 1) (* (- 1) c_10 n ) (* (- 2) c_11 n sum ) (* (- 1) c_11 n n ) (* 1 c_7 ) (* 1 c_8 n ) (* (- 1) c_8 n n ) (* 1 c_8 sum ) (* (- 1) c_9 ) (* 2 c_9 n ) ) 0) )))
(assert (forall ((sum Real) (n Real) ) (=> (and (>= (+ (* (- 1) 1) (* 1 n ) ) 0) (>= (* 1 1) 0) (>= (+ (* 1 n s_7 ) (* 1 n s_8 sum ) (* 1 n n s_9 ) (* 1 s_10 sum ) (* 1 s_11 sum sum ) (* 1 s_6 ) ) 0) ) (>= (+ (* 1 n s_10 ) (* 2 n s_11 sum ) (* 1 n s_7 ) (* (- 1) n s_8 ) (* 1 n s_8 sum ) (* (- 2) n s_9 ) (* 1 n n s_11 ) (* 1 n n s_8 ) (* 1 n n s_9 ) (* 1 s_10 sum ) (* 1 s_11 sum sum ) (* 1 s_6 ) (* (- 1) s_7 ) (* (- 1) s_8 sum ) (* 1 s_9 ) ) 0) )))
(assert (forall ((sum Real) (n Real) ) (=> (and (>= (+ (* (- 1) 1) (* 1 n ) ) 0) (>= (* 1 1) 0) (>= (+ (* 1 n s_7 ) (* 1 n s_8 sum ) (* 1 n n s_9 ) (* 1 s_10 sum ) (* 1 s_11 sum sum ) (* 1 s_6 ) ) 0) ) (>= (+ (* 1 c_10 n ) (* 1 c_10 sum ) (* 2 c_11 n sum ) (* 1 c_11 n n ) (* 1 c_11 sum sum ) (* 1 c_6 ) (* (- 1) c_7 ) (* 1 c_7 n ) (* (- 1) c_8 n ) (* 1 c_8 n sum ) (* 1 c_8 n n ) (* (- 1) c_8 sum ) (* 1 c_9 ) (* (- 2) c_9 n ) (* 1 c_9 n n ) ) 0) )))
(assert (forall ((sum Real) (n Real) ) (=> (and (>= (+ (* (- 1) 1) (* 1 n ) ) 0) (>= (* 1 1) 0) (>= (+ (* 1 n s_7 ) (* 1 n s_8 sum ) (* 1 n n s_9 ) (* 1 s_10 sum ) (* 1 s_11 sum sum ) (* 1 s_6 ) ) 0) ) (>= (+ (* (- 1) 1) (* (- 1) c_10 n ) (* (- 2) c_11 n sum ) (* (- 1) c_11 n n ) (* 1 c_7 ) (* 1 c_8 n ) (* (- 1) c_8 n n ) (* 1 c_8 sum ) (* (- 1) c_9 ) (* 2 c_9 n ) ) 0) )))
(assert (forall ((sum Real) (n Real) ) (=> (and (>= (* 1 n ) 0) (>= (* (- 1) n ) 0) (>= (* 1 1) 0) (>= (+ (* 1 n s_7 ) (* 1 n s_8 sum ) (* 1 n n s_9 ) (* 1 s_10 sum ) (* 1 s_11 sum sum ) (* 1 s_6 ) ) 0) ) (>= (+ (* 1 n s_13 ) (* 1 n s_14 sum ) (* 1 n n s_15 ) (* 1 s_12 ) (* 1 s_16 sum ) (* 1 s_17 sum sum ) ) 0) )))
(assert (forall ((sum Real) (n Real) ) (=> (and (>= (* 1 n ) 0) (>= (* (- 1) n ) 0) (>= (* 1 1) 0) (>= (+ (* 1 n s_7 ) (* 1 n s_8 sum ) (* 1 n n s_9 ) (* 1 s_10 sum ) (* 1 s_11 sum sum ) (* 1 s_6 ) ) 0) ) (>= (+ (* 1 c_12 ) (* 1 c_13 n ) (* 1 c_14 n sum ) (* 1 c_15 n n ) (* 1 c_16 sum ) (* 1 c_17 sum sum ) ) 0) )))

(check-sat)
(get-model)
